solns.txt
SOLVE
CHEAT
GRIME
EXULT
USHER
EPOCH
TRIAD
BREAK
RHINO
VIRAL
CONIC
MASSE
SONIC
VITAL
TRACE
USING
PEACH
CHAMP
BATON
BRAKE
PLUCK
CRAZE
GRIPE
WEARY
PICKY
ACUTE
FERRY
ASIDE
TAPIR
TROLL
UNIFY
REBUS
BOOST
TRUSS
SIEGE
TIGER
BANAL
SLUMP
CRANK
GORGE
QUERY
DRINK
FAVOR
ABBEY
TANGY
PANIC
SOLAR
SHIRE
PROXY
POINT
